Reading model...
...model read.
creating competitive generators file...
...competitive generators recorded.
Loading data...
.. real-time data read.
Compiling instance...
...instance created.
Creating Offer Mitigation (model will solve as dispatch if TRUE)...
NOTE: storage offers will not be mitigated
...storage offer mitigation file created
Converting model to MPEC...
...converted
NOTE: initial MIP solve with only storage competitive to get feasible solution
Solving...

Welcome to IBM(R) ILOG(R) CPLEX(R) Interactive Optimizer 12.9.0.0
  with Simplex, Mixed Integer & Barrier Optimizers
5725-A06 5725-A29 5724-Y48 5724-Y49 5724-Y54 5724-Y55 5655-Y21
Copyright IBM Corp. 1988, 2019.  All Rights Reserved.

Type 'help' for a list of available commands.
Type 'help' followed by a command name for more
information on commands.

CPLEX> Logfile 'cplex.log' closed.
Logfile 'C:\Users\llavin\Desktop\test826\logs\tmp84a1w396.cplex.log' open.
CPLEX> New value for parallel optimization mode: -1
CPLEX> New value for mixed integer optimality gap tolerance: 0.1
CPLEX> New value for feasibility tolerance: 1e-09
CPLEX> New value for deterministic time limit in ticks: 10000
CPLEX> Problem 'C:\Users\llavin\Desktop\test826\logs\tmphmqx6iqx.pyomo.lp' read.
Read time = 0.53 sec. (28.54 ticks)
CPLEX> Problem name         : C:\Users\llavin\Desktop\test826\logs\tmphmqx6iqx.pyomo.lp
Objective sense      : Maximize
Variables            :  107781  [Nneg: 1,  Box: 44056,  Free: 8928,
                                 Binary: 54796]
Objective nonzeros   :   18371
Linear constraints   :  246901  [Less: 82866,  Greater: 118424,  Equal: 45611]
  Nonzeros           :  619071
  RHS nonzeros       :  135876

Variables            : Min LB: -5000.000        Max UB: 1000000.       
Objective nonzeros   : Min   : 0.008333333      Max   : 208.3333       
Linear constraints   :
  Nonzeros           : Min   : 0.008333333      Max   : 1000000.       
  RHS nonzeros       : Min   : 0.008333333      Max   : 1000000.       
CPLEX> CPXPARAM_Parallel                                -1
CPXPARAM_Simplex_Tolerances_Feasibility          1.0000000000000001e-09
CPXPARAM_DetTimeLimit                            10000
CPXPARAM_MIP_Tolerances_MIPGap                   0.10000000000000001
Tried aggregator 3 times.
MIP Presolve eliminated 176127 rows and 36925 columns.
MIP Presolve added 7065 rows and 0 columns.
MIP Presolve modified 52678 coefficients.
Aggregator did 26038 substitutions.
Reduced MIP has 51801 rows, 43944 columns, and 171509 nonzeros.
Reduced MIP has 17396 binaries, 0 generals, 0 SOSs, and 0 indicators.
Presolve time = 0.64 sec. (397.05 ticks)
Probing fixed 746 vars, tightened 9628 bounds.
Probing time = 0.36 sec. (16.25 ticks)
Tried aggregator 2 times.
MIP Presolve eliminated 1705 rows and 1516 columns.
MIP Presolve modified 6393 coefficients.
Aggregator did 56 substitutions.
Reduced MIP has 50040 rows, 42372 columns, and 166340 nonzeros.
Reduced MIP has 16645 binaries, 0 generals, 0 SOSs, and 0 indicators.
Presolve time = 0.30 sec. (268.21 ticks)
Probing fixed 6 vars, tightened 410 bounds.
Probing time = 0.53 sec. (20.54 ticks)
Clique table members: 92602.
MIP emphasis: balance optimality and feasibility.
MIP search method: dynamic search.
Parallel mode: opportunistic, using up to 32 threads.
Root relaxation solution time = 1.22 sec. (2080.45 ticks)

        Nodes                                         Cuts/
   Node  Left     Objective  IInf  Best Integer    Best Bound    ItCnt     Gap

      0     0        0.0000     2                      0.0000    10057         
*     0+    0                            0.0000        0.0000             0.00%
      0     0        cutoff              0.0000        0.0000    10057    0.00%
Elapsed time = 3.88 sec. (3321.44 ticks, tree = 0.01 MB, solutions = 1)

Root node processing (before b&c):
  Real time             =    3.89 sec. (3325.44 ticks)
Parallel b&c, 32 threads:
  Real time             =    0.00 sec. (0.00 ticks)
  Sync time (average)   =    0.00 sec.
  Wait time (average)   =    0.00 sec.
                          ------------
Total (root+branch&cut) =    3.89 sec. (3325.44 ticks)

Solution pool: 1 solution saved.

MIP - Integer optimal solution:  Objective =  0.0000000000e+00
Solution time =    3.94 sec.  Iterations = 10057  Nodes = 0
Deterministic time = 3325.75 ticks  (844.74 ticks/sec)

CPLEX> Incumbent solution written to file 'C:\Users\llavin\Desktop\test826\logs\tmp6hmh2uki.cplex.sol'.
CPLEX> NOTE: no warmstart specified for MIP iteration, default behavior is true
NOTE: resolving with all competitive generators using storage-only solution to warmstart
Solving...

Welcome to IBM(R) ILOG(R) CPLEX(R) Interactive Optimizer 12.9.0.0
  with Simplex, Mixed Integer & Barrier Optimizers
5725-A06 5725-A29 5724-Y48 5724-Y49 5724-Y54 5724-Y55 5655-Y21
Copyright IBM Corp. 1988, 2019.  All Rights Reserved.

Type 'help' for a list of available commands.
Type 'help' followed by a command name for more
information on commands.

CPLEX> Logfile 'cplex.log' closed.
Logfile 'C:\Users\llavin\Desktop\test826\logs\tmpn182zrv3.cplex.log' open.
CPLEX> New value for parallel optimization mode: -1
CPLEX> New value for mixed integer optimality gap tolerance: 0.1
CPLEX> New value for feasibility tolerance: 1e-09
CPLEX> New value for deterministic time limit in ticks: 10000
CPLEX> Problem 'C:\Users\llavin\Desktop\test826\logs\tmpshl3_rnn.pyomo.lp' read.
Read time = 0.52 sec. (28.58 ticks)
CPLEX> MIP start file 'C:\Users\llavin\Desktop\test826\logs\tmp5lcmcrre.cplex.mst' read.
CPLEX> Problem name         : C:\Users\llavin\Desktop\test826\logs\tmpshl3_rnn.pyomo.lp
Objective sense      : Maximize
Variables            :  109221  [Nneg: 1,  Box: 45496,  Free: 8928,
                                 Binary: 54796]
Objective nonzeros   :   19763
Linear constraints   :  246901  [Less: 82866,  Greater: 118424,  Equal: 45611]
  Nonzeros           :  619071
  RHS nonzeros       :  135876

Variables            : Min LB: -5000.000        Max UB: 1000000.       
Objective nonzeros   : Min   : 0.008333333      Max   : 208.3333       
Linear constraints   :
  Nonzeros           : Min   : 0.008333333      Max   : 1000000.       
  RHS nonzeros       : Min   : 0.008333333      Max   : 1000000.       
CPLEX> CPXPARAM_Parallel                                -1
CPXPARAM_Simplex_Tolerances_Feasibility          1.0000000000000001e-09
CPXPARAM_DetTimeLimit                            10000
CPXPARAM_MIP_Tolerances_MIPGap                   0.10000000000000001
1 of 1 MIP starts provided solutions.
MIP start 'm1' defined initial solution with objective 0.0000.
Tried aggregator 3 times.
MIP Presolve eliminated 176127 rows and 38365 columns.
MIP Presolve added 7065 rows and 0 columns.
MIP Presolve modified 52678 coefficients.
Aggregator did 26038 substitutions.
Reduced MIP has 51801 rows, 43944 columns, and 171509 nonzeros.
Reduced MIP has 17396 binaries, 0 generals, 0 SOSs, and 0 indicators.
Presolve time = 0.63 sec. (397.79 ticks)
Probing fixed 746 vars, tightened 9628 bounds.
Probing time = 0.36 sec. (16.25 ticks)
Tried aggregator 2 times.
MIP Presolve eliminated 1705 rows and 1516 columns.
MIP Presolve modified 6393 coefficients.
Aggregator did 56 substitutions.
Reduced MIP has 50040 rows, 42372 columns, and 166340 nonzeros.
Reduced MIP has 16645 binaries, 0 generals, 0 SOSs, and 0 indicators.
Presolve time = 0.30 sec. (268.38 ticks)
Probing fixed 6 vars, tightened 416 bounds.
Probing time = 0.56 sec. (20.25 ticks)
Clique table members: 92888.
MIP emphasis: balance optimality and feasibility.
MIP search method: dynamic search.
Parallel mode: opportunistic, using up to 32 threads.
Root relaxation solution time = 1.34 sec. (2243.30 ticks)

        Nodes                                         Cuts/
   Node  Left     Objective  IInf  Best Integer    Best Bound    ItCnt     Gap

*     0+    0                            0.0000   1.19991e+07              --- 
      0     0    13156.2043   327        0.0000    13156.2043    11660     --- 
      0     0    11961.9527   299        0.0000     Cuts: 311    12116     --- 
      0     0    10176.6260   271        0.0000     Cuts: 306    12500     --- 
      0     0    10176.6260   252        0.0000     Cuts: 238    12591     --- 
      0     0    10176.6260   252        0.0000      Cuts: 92    12616     --- 
      0    21        cutoff              0.0000   Impl Bds: 3    12957     --- 
Elapsed time = 11.25 sec. (7481.95 ticks, tree = 0.02 MB, solutions = 1)
    106    19     7922.9153    79        0.0000     8324.5768    12838     --- 
    461   220     4407.3311    36        0.0000     8324.5768    16349     --- 
    833   188     5056.2568    22        0.0000     8324.5768    15688     --- 
   1118   668        cutoff              0.0000     8324.5768    25885     --- 
   1393   526     1758.6548    22        0.0000     8324.5768    21481     --- 
   1634   722        cutoff              0.0000     7930.4730    27419     --- 
   1808   858        cutoff              0.0000     7905.2630    38672     --- 
   2042   851      593.9585    21        0.0000     6976.4221    38020     --- 
   2308   843     1734.4131    14        0.0000     6976.4221    37433     --- 

Implied bound cuts applied:  11
Flow cuts applied:  90
Mixed integer rounding cuts applied:  21
Gomory fractional cuts applied:  8

Root node processing (before b&c):
  Real time             =    8.47 sec. (7433.91 ticks)
Parallel b&c, 32 threads:
  Real time             =   16.13 sec. (2639.71 ticks)
  Sync time (average)   =    1.06 sec.
  Wait time (average)   =    0.00 sec.
                          ------------
Total (root+branch&cut) =   24.59 sec. (10073.63 ticks)

Solution pool: 5 solutions saved.

MIP - Deterministic time limit exceeded, integer feasible:  Objective =  0.0000000000e+00
Current MIP best bound =  6.7287857934e+03 (gap = 6728.79, 6.7e+15%)
Solution time =   24.64 sec.  Iterations = 54127  Nodes = 2638 (1134)
Deterministic time = 10073.94 ticks  (408.83 ticks/sec)

CPLEX> Incumbent solution written to file 'C:\Users\llavin\Desktop\test826\logs\tmpmgfn2bd5.cplex.sol'.
CPLEX> Exporting results... 
